# Random Circle Problem
param d := 0.05; 
param n := 10; 
param radius := 2.00; 
param v0 := 
1 5.69
2 5.27
3 5.08
4 5.22
5 5.02
6 5.04
7 5.22
8 4.94
9 5.09
10 5.53
;
param cap := 
1 3.43997
2 3.76355
3 4.16968
4 4.64028
5 5.54118
6 0.39766
7 0.51857
8 1.21210
9 2.36233
10 2.41787
;
param x0 := 
1 2.00
2 1.62
3 0.62
4 -0.62
5 -1.62
6 -2.00
7 -1.62
8 -0.62
9 0.62
10 1.62
;
param y0 := 
1 -0.00
2 1.18
3 1.90
4 1.90
5 1.18
6 0.00
7 -1.18
8 -1.90
9 -1.90
10 -1.18
;
